c SSAT file for PBN ISCAS/c880_distill_ISCAS/c880_miter written by probABC
p cnf 709 1848
r 0.500000 1 0
r 0.500000 2 0
r 0.500000 3 0
r 0.500000 4 0
r 0.500000 5 0
r 0.500000 6 0
r 0.500000 7 0
r 0.500000 8 0
r 0.500000 9 0
r 0.500000 10 0
r 0.500000 11 0
r 0.500000 12 0
r 0.500000 13 0
r 0.500000 14 0
r 0.500000 15 0
r 0.500000 16 0
r 0.500000 17 0
r 0.500000 18 0
r 0.500000 19 0
r 0.500000 20 0
r 0.500000 21 0
r 0.500000 22 0
r 0.500000 23 0
r 0.500000 24 0
r 0.500000 25 0
r 0.500000 26 0
r 0.500000 27 0
r 0.500000 28 0
r 0.500000 29 0
r 0.500000 30 0
r 0.500000 31 0
r 0.500000 32 0
r 0.500000 33 0
r 0.500000 34 0
r 0.500000 35 0
r 0.500000 36 0
r 0.500000 37 0
r 0.500000 38 0
r 0.500000 39 0
r 0.500000 40 0
r 0.500000 41 0
r 0.500000 42 0
r 0.500000 43 0
r 0.500000 44 0
r 0.500000 45 0
r 0.500000 46 0
r 0.500000 47 0
r 0.500000 48 0
r 0.500000 49 0
r 0.500000 50 0
r 0.500000 51 0
r 0.500000 52 0
r 0.500000 53 0
r 0.500000 54 0
r 0.500000 55 0
r 0.500000 56 0
r 0.500000 57 0
r 0.500000 58 0
r 0.500000 59 0
r 0.500000 60 0
r 0.125000 61 0
r 0.125000 62 0
r 0.125000 63 0
r 0.125000 64 0
r 0.125000 65 0
r 0.125000 66 0
r 0.125000 67 0
r 0.125000 68 0
r 0.125000 69 0
r 0.125000 70 0
r 0.125000 71 0
r 0.125000 72 0
r 0.125000 73 0
r 0.125000 74 0
r 0.125000 75 0
r 0.125000 76 0
r 0.125000 77 0
r 0.125000 78 0
r 0.125000 79 0
r 0.125000 80 0
r 0.125000 81 0
r 0.125000 82 0
r 0.125000 83 0
r 0.125000 84 0
r 0.125000 85 0
r 0.125000 86 0
r 0.125000 87 0
r 0.125000 88 0
r 0.125000 89 0
r 0.125000 90 0
r 0.125000 91 0
r 0.125000 92 0
r 0.125000 93 0
e 95 0
e 96 0
e 97 0
e 98 0
e 99 0
e 100 0
e 101 0
e 102 0
e 103 0
e 104 0
e 105 0
e 106 0
e 107 0
e 108 0
e 109 0
e 110 0
e 111 0
e 112 0
e 113 0
e 114 0
e 115 0
e 116 0
e 117 0
e 118 0
e 119 0
e 120 0
e 121 0
e 122 0
e 123 0
e 124 0
e 125 0
e 126 0
e 127 0
e 128 0
e 129 0
e 130 0
e 131 0
e 132 0
e 133 0
e 134 0
e 135 0
e 136 0
e 137 0
e 138 0
e 139 0
e 140 0
e 141 0
e 142 0
e 143 0
e 144 0
e 145 0
e 146 0
e 147 0
e 148 0
e 149 0
e 150 0
e 151 0
e 152 0
e 153 0
e 154 0
e 155 0
e 156 0
e 157 0
e 158 0
e 159 0
e 160 0
e 161 0
e 162 0
e 163 0
e 164 0
e 165 0
e 166 0
e 167 0
e 168 0
e 169 0
e 170 0
e 171 0
e 172 0
e 173 0
e 174 0
e 175 0
e 176 0
e 177 0
e 178 0
e 179 0
e 180 0
e 181 0
e 182 0
e 183 0
e 184 0
e 185 0
e 186 0
e 187 0
e 188 0
e 189 0
e 190 0
e 191 0
e 192 0
e 193 0
e 194 0
e 195 0
e 196 0
e 197 0
e 198 0
e 199 0
e 200 0
e 201 0
e 202 0
e 203 0
e 204 0
e 205 0
e 206 0
e 207 0
e 208 0
e 209 0
e 210 0
e 211 0
e 212 0
e 213 0
e 214 0
e 215 0
e 216 0
e 217 0
e 218 0
e 219 0
e 220 0
e 221 0
e 222 0
e 223 0
e 224 0
e 225 0
e 226 0
e 227 0
e 228 0
e 229 0
e 230 0
e 231 0
e 232 0
e 233 0
e 234 0
e 235 0
e 236 0
e 237 0
e 238 0
e 239 0
e 240 0
e 241 0
e 242 0
e 243 0
e 244 0
e 245 0
e 246 0
e 247 0
e 248 0
e 249 0
e 250 0
e 251 0
e 252 0
e 253 0
e 254 0
e 255 0
e 256 0
e 257 0
e 258 0
e 259 0
e 260 0
e 261 0
e 262 0
e 263 0
e 264 0
e 265 0
e 266 0
e 267 0
e 268 0
e 269 0
e 270 0
e 271 0
e 272 0
e 273 0
e 274 0
e 275 0
e 276 0
e 277 0
e 278 0
e 279 0
e 280 0
e 281 0
e 282 0
e 283 0
e 284 0
e 285 0
e 286 0
e 287 0
e 288 0
e 289 0
e 290 0
e 291 0
e 292 0
e 293 0
e 294 0
e 295 0
e 296 0
e 297 0
e 298 0
e 299 0
e 300 0
e 301 0
e 302 0
e 303 0
e 304 0
e 305 0
e 306 0
e 307 0
e 308 0
e 309 0
e 310 0
e 311 0
e 312 0
e 313 0
e 314 0
e 315 0
e 316 0
e 317 0
e 318 0
e 319 0
e 320 0
e 321 0
e 322 0
e 323 0
e 324 0
e 325 0
e 326 0
e 327 0
e 328 0
e 329 0
e 330 0
e 331 0
e 332 0
e 333 0
e 334 0
e 335 0
e 336 0
e 337 0
e 338 0
e 339 0
e 340 0
e 341 0
e 342 0
e 343 0
e 344 0
e 345 0
e 346 0
e 347 0
e 348 0
e 349 0
e 350 0
e 351 0
e 352 0
e 353 0
e 354 0
e 355 0
e 356 0
e 357 0
e 358 0
e 359 0
e 360 0
e 361 0
e 362 0
e 363 0
e 364 0
e 365 0
e 366 0
e 367 0
e 368 0
e 369 0
e 370 0
e 371 0
e 372 0
e 373 0
e 374 0
e 375 0
e 376 0
e 377 0
e 378 0
e 379 0
e 380 0
e 381 0
e 382 0
e 383 0
e 384 0
e 385 0
e 386 0
e 387 0
e 388 0
e 389 0
e 390 0
e 391 0
e 392 0
e 393 0
e 394 0
e 395 0
e 396 0
e 397 0
e 398 0
e 399 0
e 400 0
e 401 0
e 402 0
e 403 0
e 404 0
e 405 0
e 406 0
e 407 0
e 408 0
e 409 0
e 410 0
e 411 0
e 412 0
e 413 0
e 414 0
e 415 0
e 416 0
e 417 0
e 418 0
e 419 0
e 420 0
e 421 0
e 422 0
e 423 0
e 424 0
e 425 0
e 426 0
e 427 0
e 428 0
e 429 0
e 430 0
e 431 0
e 432 0
e 433 0
e 434 0
e 435 0
e 436 0
e 437 0
e 438 0
e 439 0
e 440 0
e 441 0
e 442 0
e 443 0
e 444 0
e 445 0
e 446 0
e 447 0
e 448 0
e 449 0
e 450 0
e 451 0
e 452 0
e 453 0
e 454 0
e 455 0
e 456 0
e 457 0
e 458 0
e 459 0
e 460 0
e 461 0
e 462 0
e 463 0
e 464 0
e 465 0
e 466 0
e 467 0
e 468 0
e 469 0
e 470 0
e 471 0
e 472 0
e 473 0
e 474 0
e 475 0
e 476 0
e 477 0
e 478 0
e 479 0
e 480 0
e 481 0
e 482 0
e 483 0
e 484 0
e 485 0
e 486 0
e 487 0
e 488 0
e 489 0
e 490 0
e 491 0
e 492 0
e 493 0
e 494 0
e 495 0
e 496 0
e 497 0
e 498 0
e 499 0
e 500 0
e 501 0
e 502 0
e 503 0
e 504 0
e 505 0
e 506 0
e 507 0
e 508 0
e 509 0
e 510 0
e 511 0
e 512 0
e 513 0
e 514 0
e 515 0
e 516 0
e 517 0
e 518 0
e 519 0
e 520 0
e 521 0
e 522 0
e 523 0
e 524 0
e 525 0
e 526 0
e 527 0
e 528 0
e 529 0
e 530 0
e 531 0
e 532 0
e 533 0
e 534 0
e 535 0
e 536 0
e 537 0
e 538 0
e 539 0
e 540 0
e 541 0
e 542 0
e 543 0
e 544 0
e 545 0
e 546 0
e 547 0
e 548 0
e 549 0
e 550 0
e 551 0
e 552 0
e 553 0
e 554 0
e 555 0
e 556 0
e 557 0
e 558 0
e 559 0
e 560 0
e 561 0
e 562 0
e 563 0
e 564 0
e 565 0
e 566 0
e 567 0
e 568 0
e 569 0
e 570 0
e 571 0
e 572 0
e 573 0
e 574 0
e 575 0
e 576 0
e 577 0
e 578 0
e 579 0
e 580 0
e 581 0
e 582 0
e 583 0
e 584 0
e 585 0
e 586 0
e 587 0
e 588 0
e 589 0
e 590 0
e 591 0
e 592 0
e 593 0
e 594 0
e 595 0
e 596 0
e 597 0
e 598 0
e 599 0
e 600 0
e 601 0
e 602 0
e 603 0
e 604 0
e 605 0
e 606 0
e 607 0
e 608 0
e 609 0
e 610 0
e 611 0
e 612 0
e 613 0
e 614 0
e 615 0
e 616 0
e 617 0
e 618 0
e 619 0
e 620 0
e 621 0
e 622 0
e 623 0
e 624 0
e 625 0
e 626 0
e 627 0
e 628 0
e 629 0
e 630 0
e 631 0
e 632 0
e 633 0
e 634 0
e 635 0
e 636 0
e 637 0
e 638 0
e 639 0
e 640 0
e 641 0
e 642 0
e 643 0
e 644 0
e 645 0
e 646 0
e 647 0
e 648 0
e 649 0
e 650 0
e 651 0
e 652 0
e 653 0
e 654 0
e 655 0
e 656 0
e 657 0
e 658 0
e 659 0
e 660 0
e 661 0
e 662 0
e 663 0
e 664 0
e 665 0
e 666 0
e 667 0
e 668 0
e 669 0
e 670 0
e 671 0
e 672 0
e 673 0
e 674 0
e 675 0
e 676 0
e 677 0
e 678 0
e 679 0
e 680 0
e 681 0
e 682 0
e 683 0
e 684 0
e 685 0
e 686 0
e 687 0
e 688 0
e 689 0
e 690 0
e 691 0
e 692 0
e 693 0
e 694 0
e 695 0
e 696 0
e 697 0
e 698 0
e 699 0
e 700 0
e 701 0
e 702 0
e 703 0
e 704 0
e 705 0
e 706 0
e 707 0
e 708 0
e 709 0
e 94 0
95 -1 -2 0
-95 1 0
-95 2 0
96 -3 -8 0
-96 3 0
-96 8 0
97 -10 -11 0
-97 10 0
-97 11 0
98 -12 -13 0
-98 12 0
-98 13 0
99 -97 -98 0
-99 97 0
-99 98 0
100 -95 -96 0
-100 95 0
-100 96 0
101 -99 -100 0
-101 99 0
-101 100 0
102 74 101 0
-102 -74 0
-102 -101 0
103 -74 -101 0
-103 74 0
-103 101 0
104 -14 102 0
-104 14 0
-104 -102 0
105 103 -104 0
-105 -103 0
-105 104 0
106 -43 -105 0
-106 43 0
-106 105 0
107 -91 106 0
-107 91 0
-107 -106 0
108 -4 -34 0
-108 4 0
-108 34 0
109 -1 -5 0
-109 1 0
-109 5 0
110 -63 109 0
-110 63 0
-110 -109 0
111 63 -109 0
-111 -63 0
-111 109 0
112 110 111 0
-112 -110 0
-112 -111 0
113 -9 112 0
-113 9 0
-113 -112 0
114 -6 -16 0
-114 6 0
-114 16 0
115 -17 -114 0
-115 17 0
-115 114 0
116 -4 60 0
-116 4 0
-116 -60 0
117 -115 -116 0
-117 115 0
-117 116 0
118 -113 -117 0
-118 113 0
-118 117 0
119 -11 -40 0
-119 11 0
-119 40 0
120 -113 119 0
-120 113 0
-120 -119 0
121 -70 120 0
-121 70 0
-121 -120 0
122 70 -120 0
-122 -70 0
-122 120 0
123 121 122 0
-123 -121 0
-123 -122 0
124 -10 123 0
-124 10 0
-124 -123 0
125 -37 -124 0
-125 37 0
-125 124 0
126 118 125 0
-126 -118 0
-126 -125 0
127 -84 126 0
-127 84 0
-127 -126 0
128 84 -126 0
-128 -84 0
-128 126 0
129 127 128 0
-129 -127 0
-129 -128 0
130 -8 -11 0
-130 8 0
-130 11 0
131 -16 -130 0
-131 16 0
-131 130 0
132 -4 -9 0
-132 4 0
-132 9 0
133 -95 -132 0
-133 95 0
-133 132 0
134 131 -133 0
-134 -131 0
-134 133 0
135 -4 8 0
-135 4 0
-135 -8 0
136 4 -8 0
-136 -4 0
-136 8 0
137 135 136 0
-137 -135 0
-137 -136 0
138 -71 137 0
-138 71 0
-138 -137 0
139 71 -137 0
-139 -71 0
-139 137 0
140 -119 138 0
-140 119 0
-140 -138 0
141 139 -140 0
-141 -139 0
-141 140 0
142 -72 -141 0
-142 72 0
-142 141 0
143 72 141 0
-143 -72 0
-143 -141 0
144 -113 142 0
-144 113 0
-144 -142 0
145 143 -144 0
-145 -143 0
-145 144 0
146 134 145 0
-146 -134 0
-146 -145 0
147 -26 146 0
-147 26 0
-147 -146 0
148 108 147 0
-148 -108 0
-148 -147 0
149 129 -148 0
-149 -129 0
-149 148 0
150 -54 149 0
-150 54 0
-150 -149 0
151 91 -106 0
-151 -91 0
-151 106 0
152 107 151 0
-152 -107 0
-152 -151 0
153 150 -152 0
-153 -150 0
-153 152 0
154 -92 153 0
-154 92 0
-154 -153 0
155 92 -153 0
-155 -92 0
-155 153 0
156 154 155 0
-156 -154 0
-156 -155 0
157 43 -149 0
-157 -43 0
-157 149 0
158 -85 157 0
-158 85 0
-158 -157 0
159 85 -157 0
-159 -85 0
-159 157 0
160 158 159 0
-160 -158 0
-160 -159 0
161 -43 149 0
-161 43 0
-161 -149 0
162 -160 161 0
-162 160 0
-162 -161 0
163 -39 -124 0
-163 39 0
-163 124 0
164 -34 -38 0
-164 34 0
-164 38 0
165 -27 146 0
-165 27 0
-165 -146 0
166 164 165 0
-166 -164 0
-166 -165 0
167 86 166 0
-167 -86 0
-167 -166 0
168 -86 -166 0
-168 86 0
-168 166 0
169 118 163 0
-169 -118 0
-169 -163 0
170 167 -169 0
-170 -167 0
-170 169 0
171 168 -170 0
-171 -168 0
-171 170 0
172 -87 171 0
-172 87 0
-172 -171 0
173 87 -171 0
-173 -87 0
-173 171 0
174 172 173 0
-174 -172 0
-174 -173 0
175 -44 -174 0
-175 44 0
-175 174 0
176 44 174 0
-176 -44 0
-176 -174 0
177 -10 60 0
-177 10 0
-177 -60 0
178 -115 -177 0
-178 115 0
-178 177 0
179 -113 -178 0
-179 113 0
-179 178 0
180 -4 123 0
-180 4 0
-180 -123 0
181 -1 180 0
-181 1 0
-181 -180 0
182 -35 181 0
-182 35 0
-182 -181 0
183 -28 146 0
-183 28 0
-183 -146 0
184 182 183 0
-184 -182 0
-184 -183 0
185 -75 -184 0
-185 75 0
-185 184 0
186 75 184 0
-186 -75 0
-186 -184 0
187 179 185 0
-187 -179 0
-187 -185 0
188 186 -187 0
-188 -186 0
-188 187 0
189 -45 188 0
-189 45 0
-189 -188 0
190 45 -188 0
-190 -45 0
-190 188 0
191 -36 181 0
-191 36 0
-191 -181 0
192 -29 146 0
-192 29 0
-192 -146 0
193 191 192 0
-193 -191 0
-193 -192 0
194 -76 -193 0
-194 76 0
-194 193 0
195 76 193 0
-195 -76 0
-195 -193 0
196 179 194 0
-196 -179 0
-196 -194 0
197 195 -196 0
-197 -195 0
-197 196 0
198 -46 197 0
-198 46 0
-198 -197 0
199 46 -197 0
-199 -46 0
-199 197 0
200 -37 181 0
-200 37 0
-200 -181 0
201 -30 146 0
-201 30 0
-201 -146 0
202 179 200 0
-202 -179 0
-202 -200 0
203 201 -202 0
-203 -201 0
-203 202 0
204 -47 203 0
-204 47 0
-204 -203 0
205 -77 204 0
-205 77 0
-205 -204 0
206 77 -204 0
-206 -77 0
-206 204 0
207 205 206 0
-207 -205 0
-207 -206 0
208 47 -203 0
-208 -47 0
-208 203 0
209 -39 181 0
-209 39 0
-209 -181 0
210 -31 146 0
-210 31 0
-210 -146 0
211 179 209 0
-211 -179 0
-211 -209 0
212 210 -211 0
-212 -210 0
-212 211 0
213 -48 212 0
-213 48 0
-213 -212 0
214 208 -213 0
-214 -208 0
-214 213 0
215 -207 214 0
-215 207 0
-215 -214 0
216 199 215 0
-216 -199 0
-216 -215 0
217 48 -212 0
-217 -48 0
-217 212 0
218 -58 217 0
-218 58 0
-218 -217 0
219 208 -218 0
-219 -208 0
-219 218 0
220 199 -219 0
-220 -199 0
-220 219 0
221 -78 220 0
-221 78 0
-221 -220 0
222 78 -220 0
-222 -78 0
-222 220 0
223 198 216 0
-223 -198 0
-223 -216 0
224 221 222 0
-224 -221 0
-224 -222 0
225 -223 -224 0
-225 223 0
-225 224 0
226 190 225 0
-226 -190 0
-226 -225 0
227 189 226 0
-227 -189 0
-227 -226 0
228 176 227 0
-228 -176 0
-228 -227 0
229 175 228 0
-229 -175 0
-229 -228 0
230 -162 229 0
-230 162 0
-230 -229 0
231 162 -229 0
-231 -162 0
-231 229 0
232 -51 230 0
-232 51 0
-232 -230 0
233 231 -232 0
-233 -231 0
-233 232 0
234 -53 -161 0
-234 53 0
-234 161 0
235 -25 -50 0
-235 25 0
-235 50 0
236 -52 -162 0
-236 52 0
-236 162 0
237 234 235 0
-237 -234 0
-237 -235 0
238 236 -237 0
-238 -236 0
-238 237 0
239 233 -238 0
-239 -233 0
-239 238 0
240 -93 239 0
-240 93 0
-240 -239 0
241 93 -239 0
-241 -93 0
-241 239 0
242 240 241 0
-242 -240 0
-242 -241 0
243 156 242 0
-243 -156 0
-243 -242 0
244 -9 -109 0
-244 9 0
-244 109 0
245 -119 137 0
-245 119 0
-245 -137 0
246 -244 -245 0
-246 244 0
-246 245 0
247 134 246 0
-247 -134 0
-247 -246 0
248 -26 247 0
-248 26 0
-248 -247 0
249 119 -244 0
-249 -119 0
-249 244 0
250 -10 -249 0
-250 10 0
-250 249 0
251 -37 -250 0
-251 37 0
-251 250 0
252 -117 -244 0
-252 117 0
-252 244 0
253 108 252 0
-253 -108 0
-253 -252 0
254 251 -253 0
-254 -251 0
-254 253 0
255 248 -254 0
-255 -248 0
-255 254 0
256 -43 255 0
-256 43 0
-256 -255 0
257 43 -255 0
-257 -43 0
-257 255 0
258 256 257 0
-258 -256 0
-258 -257 0
259 -52 -258 0
-259 52 0
-259 258 0
260 -27 247 0
-260 27 0
-260 -247 0
261 -39 -250 0
-261 39 0
-261 250 0
262 164 252 0
-262 -164 0
-262 -252 0
263 261 -262 0
-263 -261 0
-263 262 0
264 260 -263 0
-264 -260 0
-264 263 0
265 -44 264 0
-265 44 0
-265 -264 0
266 44 -264 0
-266 -44 0
-266 264 0
267 -4 -249 0
-267 4 0
-267 249 0
268 -1 267 0
-268 1 0
-268 -267 0
269 -35 268 0
-269 35 0
-269 -268 0
270 -28 247 0
-270 28 0
-270 -247 0
271 -178 -244 0
-271 178 0
-271 244 0
272 269 271 0
-272 -269 0
-272 -271 0
273 270 -272 0
-273 -270 0
-273 272 0
274 -45 273 0
-274 45 0
-274 -273 0
275 45 -273 0
-275 -45 0
-275 273 0
276 -36 268 0
-276 36 0
-276 -268 0
277 -29 247 0
-277 29 0
-277 -247 0
278 271 276 0
-278 -271 0
-278 -276 0
279 277 -278 0
-279 -277 0
-279 278 0
280 -46 279 0
-280 46 0
-280 -279 0
281 46 -279 0
-281 -46 0
-281 279 0
282 -37 268 0
-282 37 0
-282 -268 0
283 -30 247 0
-283 30 0
-283 -247 0
284 271 282 0
-284 -271 0
-284 -282 0
285 283 -284 0
-285 -283 0
-285 284 0
286 -47 285 0
-286 47 0
-286 -285 0
287 47 -285 0
-287 -47 0
-287 285 0
288 -39 268 0
-288 39 0
-288 -268 0
289 -31 247 0
-289 31 0
-289 -247 0
290 271 288 0
-290 -271 0
-290 -288 0
291 289 -290 0
-291 -289 0
-291 290 0
292 -48 291 0
-292 48 0
-292 -291 0
293 48 -291 0
-293 -48 0
-293 291 0
294 -58 293 0
-294 58 0
-294 -293 0
295 292 294 0
-295 -292 0
-295 -294 0
296 287 295 0
-296 -287 0
-296 -295 0
297 286 296 0
-297 -286 0
-297 -296 0
298 281 297 0
-298 -281 0
-298 -297 0
299 280 298 0
-299 -280 0
-299 -298 0
300 275 299 0
-300 -275 0
-300 -299 0
301 274 300 0
-301 -274 0
-301 -300 0
302 266 301 0
-302 -266 0
-302 -301 0
303 265 302 0
-303 -265 0
-303 -302 0
304 -258 303 0
-304 258 0
-304 -303 0
305 258 -303 0
-305 -258 0
-305 303 0
306 -51 304 0
-306 51 0
-306 -304 0
307 305 -306 0
-307 -305 0
-307 306 0
308 -43 -53 0
-308 43 0
-308 53 0
309 54 308 0
-309 -54 0
-309 -308 0
310 255 309 0
-310 -255 0
-310 -309 0
311 -14 -101 0
-311 14 0
-311 101 0
312 -43 -311 0
-312 43 0
-312 311 0
313 235 312 0
-313 -235 0
-313 -312 0
314 310 -313 0
-314 -310 0
-314 313 0
315 259 -314 0
-315 -259 0
-315 314 0
316 307 -315 0
-316 -307 0
-316 315 0
317 243 316 0
-317 -243 0
-317 -316 0
318 -243 -316 0
-318 243 0
-318 316 0
319 317 318 0
-319 -317 0
-319 -318 0
320 -25 146 0
-320 25 0
-320 -146 0
321 -36 -124 0
-321 36 0
-321 124 0
322 -9 -34 0
-322 9 0
-322 34 0
323 118 322 0
-323 -118 0
-323 -322 0
324 321 -323 0
-324 -321 0
-324 323 0
325 320 -324 0
-325 -320 0
-325 324 0
326 42 -325 0
-326 -42 0
-326 325 0
327 -42 325 0
-327 42 0
-327 -325 0
328 326 327 0
-328 -326 0
-328 -327 0
329 -160 -175 0
-329 160 0
-329 175 0
330 161 329 0
-330 -161 0
-330 -329 0
331 -160 176 0
-331 160 0
-331 -176 0
332 227 -331 0
-332 -227 0
-332 331 0
333 -330 332 0
-333 330 0
-333 -332 0
334 90 -333 0
-334 -90 0
-334 333 0
335 -90 333 0
-335 90 0
-335 -333 0
336 334 335 0
-336 -334 0
-336 -335 0
337 328 336 0
-337 -328 0
-337 -336 0
338 -328 -336 0
-338 328 0
-338 336 0
339 -51 337 0
-339 51 0
-339 -337 0
340 338 -339 0
-340 -338 0
-340 339 0
341 -42 -105 0
-341 42 0
-341 105 0
342 -42 -53 0
-342 42 0
-342 53 0
343 54 342 0
-343 -54 0
-343 -342 0
344 325 343 0
-344 -325 0
-344 -343 0
345 -24 -50 0
-345 24 0
-345 50 0
346 -89 345 0
-346 89 0
-346 -345 0
347 89 -345 0
-347 -89 0
-347 345 0
348 -52 -328 0
-348 52 0
-348 328 0
349 346 347 0
-349 -346 0
-349 -347 0
350 341 -349 0
-350 -341 0
-350 349 0
351 344 -350 0
-351 -344 0
-351 350 0
352 348 -351 0
-352 -348 0
-352 351 0
353 340 -352 0
-353 -340 0
-353 352 0
354 -25 247 0
-354 25 0
-354 -247 0
355 -36 -250 0
-355 36 0
-355 250 0
356 252 322 0
-356 -252 0
-356 -322 0
357 355 -356 0
-357 -355 0
-357 356 0
358 354 -357 0
-358 -354 0
-358 357 0
359 -42 358 0
-359 42 0
-359 -358 0
360 42 -358 0
-360 -42 0
-360 358 0
361 359 360 0
-361 -359 0
-361 -360 0
362 -52 -361 0
-362 52 0
-362 361 0
363 257 303 0
-363 -257 0
-363 -303 0
364 256 363 0
-364 -256 0
-364 -363 0
365 -361 364 0
-365 361 0
-365 -364 0
366 361 -364 0
-366 -361 0
-366 364 0
367 -51 365 0
-367 51 0
-367 -365 0
368 366 -367 0
-368 -366 0
-368 367 0
369 343 358 0
-369 -343 0
-369 -358 0
370 -42 -311 0
-370 42 0
-370 311 0
371 345 370 0
-371 -345 0
-371 -370 0
372 369 -371 0
-372 -369 0
-372 371 0
373 362 -372 0
-373 -362 0
-373 372 0
374 368 -373 0
-374 -368 0
-374 373 0
375 353 374 0
-375 -353 0
-375 -374 0
376 -353 -374 0
-376 353 0
-376 374 0
377 375 376 0
-377 -375 0
-377 -376 0
378 -24 146 0
-378 24 0
-378 -146 0
379 -2 -34 0
-379 2 0
-379 34 0
380 -35 -124 0
-380 35 0
-380 124 0
381 118 379 0
-381 -118 0
-381 -379 0
382 380 -381 0
-382 -380 0
-382 381 0
383 378 -382 0
-383 -378 0
-383 382 0
384 -41 383 0
-384 41 0
-384 -383 0
385 41 -383 0
-385 -41 0
-385 383 0
386 384 385 0
-386 -384 0
-386 -385 0
387 -52 -386 0
-387 52 0
-387 386 0
388 326 -331 0
-388 -326 0
-388 331 0
389 227 -388 0
-389 -227 0
-389 388 0
390 326 330 0
-390 -326 0
-390 -330 0
391 327 390 0
-391 -327 0
-391 -390 0
392 389 -391 0
-392 -389 0
-392 391 0
393 386 -392 0
-393 -386 0
-393 392 0
394 -386 392 0
-394 386 0
-394 -392 0
395 -51 393 0
-395 51 0
-395 -393 0
396 394 -395 0
-396 -394 0
-396 395 0
397 -41 -53 0
-397 41 0
-397 53 0
398 54 397 0
-398 -54 0
-398 -397 0
399 383 398 0
-399 -383 0
-399 -398 0
400 -41 -105 0
-400 41 0
-400 105 0
401 -50 -60 0
-401 50 0
-401 60 0
402 400 401 0
-402 -400 0
-402 -401 0
403 399 -402 0
-403 -399 0
-403 402 0
404 387 -403 0
-404 -387 0
-404 403 0
405 396 -404 0
-405 -396 0
-405 404 0
406 -24 247 0
-406 24 0
-406 -247 0
407 -35 -250 0
-407 35 0
-407 250 0
408 252 379 0
-408 -252 0
-408 -379 0
409 407 -408 0
-409 -407 0
-409 408 0
410 406 -409 0
-410 -406 0
-410 409 0
411 -41 410 0
-411 41 0
-411 -410 0
412 41 -410 0
-412 -41 0
-412 410 0
413 411 412 0
-413 -411 0
-413 -412 0
414 -52 -413 0
-414 52 0
-414 413 0
415 360 364 0
-415 -360 0
-415 -364 0
416 359 415 0
-416 -359 0
-416 -415 0
417 -413 416 0
-417 413 0
-417 -416 0
418 413 -416 0
-418 -413 0
-418 416 0
419 -51 417 0
-419 51 0
-419 -417 0
420 418 -419 0
-420 -418 0
-420 419 0
421 398 410 0
-421 -398 0
-421 -410 0
422 -41 -311 0
-422 41 0
-422 311 0
423 401 422 0
-423 -401 0
-423 -422 0
424 421 -423 0
-424 -421 0
-424 423 0
425 414 -424 0
-425 -414 0
-425 424 0
426 420 -425 0
-426 -420 0
-426 425 0
427 405 426 0
-427 -405 0
-427 -426 0
428 -405 -426 0
-428 405 0
-428 426 0
429 427 428 0
-429 -427 0
-429 -428 0
430 -9 -63 0
-430 9 0
-430 63 0
431 -54 212 0
-431 54 0
-431 -212 0
432 213 -218 0
-432 -213 0
-432 218 0
433 213 217 0
-433 -213 0
-433 -217 0
434 58 433 0
-434 -58 0
-434 -433 0
435 73 -434 0
-435 -73 0
-435 434 0
436 -73 434 0
-436 73 0
-436 -434 0
437 -51 432 0
-437 51 0
-437 -432 0
438 435 -437 0
-438 -435 0
-438 437 0
439 436 -438 0
-439 -436 0
-439 438 0
440 -52 -433 0
-440 52 0
-440 433 0
441 -53 -213 0
-441 53 0
-441 213 0
442 -55 -59 0
-442 55 0
-442 59 0
443 -30 -50 0
-443 30 0
-443 50 0
444 442 443 0
-444 -442 0
-444 -443 0
445 -48 -105 0
-445 48 0
-445 105 0
446 -444 445 0
-446 444 0
-446 -445 0
447 431 -446 0
-447 -431 0
-447 446 0
448 441 -447 0
-448 -441 0
-448 447 0
449 440 -448 0
-449 -440 0
-449 448 0
450 439 -449 0
-450 -439 0
-450 449 0
451 -54 291 0
-451 54 0
-451 -291 0
452 292 -294 0
-452 -292 0
-452 294 0
453 292 293 0
-453 -292 0
-453 -293 0
454 58 453 0
-454 -58 0
-454 -453 0
455 -51 452 0
-455 51 0
-455 -452 0
456 454 -455 0
-456 -454 0
-456 455 0
457 -52 -453 0
-457 52 0
-457 453 0
458 -53 -292 0
-458 53 0
-458 292 0
459 -48 -311 0
-459 48 0
-459 311 0
460 -444 459 0
-460 444 0
-460 -459 0
461 451 -460 0
-461 -451 0
-461 460 0
462 458 -461 0
-462 -458 0
-462 461 0
463 457 -462 0
-463 -457 0
-463 462 0
464 456 -463 0
-464 -456 0
-464 463 0
465 450 -464 0
-465 -450 0
-465 464 0
466 -450 464 0
-466 450 0
-466 -464 0
467 -24 25 0
-467 24 0
-467 -25 0
468 24 -25 0
-468 -24 0
-468 25 0
469 467 468 0
-469 -467 0
-469 -468 0
470 -32 -469 0
-470 32 0
-470 469 0
471 32 469 0
-471 -32 0
-471 -469 0
472 470 471 0
-472 -470 0
-472 -471 0
473 -26 27 0
-473 26 0
-473 -27 0
474 26 -27 0
-474 -26 0
-474 27 0
475 473 474 0
-475 -473 0
-475 -474 0
476 -472 -475 0
-476 472 0
-476 475 0
477 472 475 0
-477 -472 0
-477 -475 0
478 476 477 0
-478 -476 0
-478 -477 0
479 -28 29 0
-479 28 0
-479 -29 0
480 28 -29 0
-480 -28 0
-480 29 0
481 479 480 0
-481 -479 0
-481 -480 0
482 -30 31 0
-482 30 0
-482 -31 0
483 30 -31 0
-483 -30 0
-483 31 0
484 482 483 0
-484 -482 0
-484 -483 0
485 -481 -484 0
-485 481 0
-485 484 0
486 481 484 0
-486 -481 0
-486 -484 0
487 485 486 0
-487 -485 0
-487 -486 0
488 66 487 0
-488 -66 0
-488 -487 0
489 -66 485 0
-489 66 0
-489 -485 0
490 488 489 0
-490 -488 0
-490 -489 0
491 -33 490 0
-491 33 0
-491 -490 0
492 33 -490 0
-492 -33 0
-492 490 0
493 491 492 0
-493 -491 0
-493 -492 0
494 -67 -493 0
-494 67 0
-494 493 0
495 -478 494 0
-495 478 0
-495 -494 0
496 67 493 0
-496 -67 0
-496 -493 0
497 495 -496 0
-497 -495 0
-497 496 0
498 -495 496 0
-498 495 0
-498 -496 0
499 497 498 0
-499 -497 0
-499 -498 0
500 33 487 0
-500 -33 0
-500 -487 0
501 -33 -487 0
-501 33 0
-501 487 0
502 500 501 0
-502 -500 0
-502 -501 0
503 -478 -502 0
-503 478 0
-503 502 0
504 478 502 0
-504 -478 0
-504 -502 0
505 503 504 0
-505 -503 0
-505 -504 0
506 -499 -505 0
-506 499 0
-506 505 0
507 499 505 0
-507 -499 0
-507 -505 0
508 8 17 0
-508 -8 0
-508 -17 0
509 -61 508 0
-509 61 0
-509 -508 0
510 -43 44 0
-510 43 0
-510 -44 0
511 43 -44 0
-511 -43 0
-511 44 0
512 510 511 0
-512 -510 0
-512 -511 0
513 -41 42 0
-513 41 0
-513 -42 0
514 41 -42 0
-514 -41 0
-514 42 0
515 513 514 0
-515 -513 0
-515 -514 0
516 -512 -515 0
-516 512 0
-516 515 0
517 -68 512 0
-517 68 0
-517 -512 0
518 -69 516 0
-518 69 0
-518 -516 0
519 517 -518 0
-519 -517 0
-519 518 0
520 -6 -7 0
-520 6 0
-520 7 0
521 109 -520 0
-521 -109 0
-521 520 0
522 61 521 0
-522 -61 0
-522 -521 0
523 -61 -521 0
-523 61 0
-523 521 0
524 63 109 0
-524 -63 0
-524 -109 0
525 -8 524 0
-525 8 0
-525 -524 0
526 522 -525 0
-526 -522 0
-526 525 0
527 523 -526 0
-527 -523 0
-527 526 0
528 -8 109 0
-528 8 0
-528 -109 0
529 -520 -528 0
-529 520 0
-529 528 0
530 -63 529 0
-530 63 0
-530 -529 0
531 527 530 0
-531 -527 0
-531 -530 0
532 -3 -4 0
-532 3 0
-532 4 0
533 531 -532 0
-533 -531 0
-533 532 0
534 -68 69 0
-534 68 0
-534 -69 0
535 385 392 0
-535 -385 0
-535 -392 0
536 384 535 0
-536 -384 0
-536 -535 0
537 412 416 0
-537 -412 0
-537 -416 0
538 411 537 0
-538 -411 0
-538 -537 0
539 536 538 0
-539 -536 0
-539 -538 0
540 -536 -538 0
-540 536 0
-540 538 0
541 539 540 0
-541 -539 0
-541 -540 0
542 -207 208 0
-542 207 0
-542 -208 0
543 -52 -542 0
-543 52 0
-543 542 0
544 213 218 0
-544 -213 0
-544 -218 0
545 -542 544 0
-545 542 0
-545 -544 0
546 542 -544 0
-546 -542 0
-546 544 0
547 -51 545 0
-547 51 0
-547 -545 0
548 546 -547 0
-548 -546 0
-548 547 0
549 -29 -50 0
-549 29 0
-549 50 0
550 -53 207 0
-550 53 0
-550 -207 0
551 549 550 0
-551 -549 0
-551 -550 0
552 543 -551 0
-552 -543 0
-552 551 0
553 548 -552 0
-553 -548 0
-553 552 0
554 -82 553 0
-554 82 0
-554 -553 0
555 82 -553 0
-555 -82 0
-555 553 0
556 554 555 0
-556 -554 0
-556 -555 0
557 -54 203 0
-557 54 0
-557 -203 0
558 -55 -57 0
-558 55 0
-558 57 0
559 -47 -105 0
-559 47 0
-559 105 0
560 558 559 0
-560 -558 0
-560 -559 0
561 557 -560 0
-561 -557 0
-561 560 0
562 556 -561 0
-562 -556 0
-562 561 0
563 -83 562 0
-563 83 0
-563 -562 0
564 83 -562 0
-564 -83 0
-564 562 0
565 563 564 0
-565 -563 0
-565 -564 0
566 286 287 0
-566 -286 0
-566 -287 0
567 -52 -566 0
-567 52 0
-567 566 0
568 295 -566 0
-568 -295 0
-568 566 0
569 -295 566 0
-569 295 0
-569 -566 0
570 -51 568 0
-570 51 0
-570 -568 0
571 569 -570 0
-571 -569 0
-571 570 0
572 -47 -311 0
-572 47 0
-572 311 0
573 -47 -53 0
-573 47 0
-573 53 0
574 54 573 0
-574 -54 0
-574 -573 0
575 285 574 0
-575 -285 0
-575 -574 0
576 549 558 0
-576 -549 0
-576 -558 0
577 572 -576 0
-577 -572 0
-577 576 0
578 575 -577 0
-578 -575 0
-578 577 0
579 567 -578 0
-579 -567 0
-579 578 0
580 571 -579 0
-580 -571 0
-580 579 0
581 -565 580 0
-581 565 0
-581 -580 0
582 565 -580 0
-582 -565 0
-582 580 0
583 581 582 0
-583 -581 0
-583 -582 0
584 175 176 0
-584 -175 0
-584 -176 0
585 -88 -584 0
-585 88 0
-585 584 0
586 88 584 0
-586 -88 0
-586 -584 0
587 585 586 0
-587 -585 0
-587 -586 0
588 227 -587 0
-588 -227 0
-588 587 0
589 -227 587 0
-589 227 0
-589 -587 0
590 -51 588 0
-590 51 0
-590 -588 0
591 589 -590 0
-591 -589 0
-591 590 0
592 -52 -587 0
-592 52 0
-592 587 0
593 -44 -53 0
-593 44 0
-593 53 0
594 54 593 0
-594 -54 0
-594 -593 0
595 -174 594 0
-595 174 0
-595 -594 0
596 -44 -105 0
-596 44 0
-596 105 0
597 -26 -50 0
-597 26 0
-597 50 0
598 596 597 0
-598 -596 0
-598 -597 0
599 595 -598 0
-599 -595 0
-599 598 0
600 592 -599 0
-600 -592 0
-600 599 0
601 591 -600 0
-601 -591 0
-601 600 0
602 265 266 0
-602 -265 0
-602 -266 0
603 -52 -602 0
-603 52 0
-603 602 0
604 301 -602 0
-604 -301 0
-604 602 0
605 -301 602 0
-605 301 0
-605 -602 0
606 -51 604 0
-606 51 0
-606 -604 0
607 605 -606 0
-607 -605 0
-607 606 0
608 264 594 0
-608 -264 0
-608 -594 0
609 -44 -311 0
-609 44 0
-609 311 0
610 597 609 0
-610 -597 0
-610 -609 0
611 608 -610 0
-611 -608 0
-611 610 0
612 603 -611 0
-612 -603 0
-612 611 0
613 607 -612 0
-613 -607 0
-613 612 0
614 601 613 0
-614 -601 0
-614 -613 0
615 -601 -613 0
-615 601 0
-615 613 0
616 614 615 0
-616 -614 0
-616 -615 0
617 -54 197 0
-617 54 0
-617 -197 0
618 198 199 0
-618 -198 0
-618 -199 0
619 80 219 0
-619 -80 0
-619 -219 0
620 -80 -219 0
-620 80 0
-620 219 0
621 619 620 0
-621 -619 0
-621 -620 0
622 -215 621 0
-622 215 0
-622 -621 0
623 -618 622 0
-623 618 0
-623 -622 0
624 618 -622 0
-624 -618 0
-624 622 0
625 -51 623 0
-625 51 0
-625 -623 0
626 624 -625 0
-626 -624 0
-626 625 0
627 -52 -618 0
-627 52 0
-627 618 0
628 -53 -198 0
-628 53 0
-628 198 0
629 -55 -56 0
-629 55 0
-629 56 0
630 -28 -50 0
-630 28 0
-630 50 0
631 629 630 0
-631 -629 0
-631 -630 0
632 -46 -105 0
-632 46 0
-632 105 0
633 -631 632 0
-633 631 0
-633 -632 0
634 617 -633 0
-634 -617 0
-634 633 0
635 628 -634 0
-635 -628 0
-635 634 0
636 627 -635 0
-636 -627 0
-636 635 0
637 626 -636 0
-637 -626 0
-637 636 0
638 -54 279 0
-638 54 0
-638 -279 0
639 280 281 0
-639 -280 0
-639 -281 0
640 297 -639 0
-640 -297 0
-640 639 0
641 -297 639 0
-641 297 0
-641 -639 0
642 -51 640 0
-642 51 0
-642 -640 0
643 641 -642 0
-643 -641 0
-643 642 0
644 -52 -639 0
-644 52 0
-644 639 0
645 -53 -280 0
-645 53 0
-645 280 0
646 -46 -311 0
-646 46 0
-646 311 0
647 -631 646 0
-647 631 0
-647 -646 0
648 638 -647 0
-648 -638 0
-648 647 0
649 645 -648 0
-649 -645 0
-649 648 0
650 644 -649 0
-650 -644 0
-650 649 0
651 643 -650 0
-651 -643 0
-651 650 0
652 -81 651 0
-652 81 0
-652 -651 0
653 81 -651 0
-653 -81 0
-653 651 0
654 652 653 0
-654 -652 0
-654 -653 0
655 637 -654 0
-655 -637 0
-655 654 0
656 -637 654 0
-656 637 0
-656 -654 0
657 655 656 0
-657 -655 0
-657 -656 0
658 189 190 0
-658 -189 0
-658 -190 0
659 -52 -658 0
-659 52 0
-659 658 0
660 -45 -53 0
-660 45 0
-660 53 0
661 54 660 0
-661 -54 0
-661 -660 0
662 188 661 0
-662 -188 0
-662 -661 0
663 -45 -105 0
-663 45 0
-663 105 0
664 -27 -50 0
-664 27 0
-664 50 0
665 225 -658 0
-665 -225 0
-665 658 0
666 -225 658 0
-666 225 0
-666 -658 0
667 -51 665 0
-667 51 0
-667 -665 0
668 666 -667 0
-668 -666 0
-668 667 0
669 664 668 0
-669 -664 0
-669 -668 0
670 79 669 0
-670 -79 0
-670 -669 0
671 -79 -669 0
-671 79 0
-671 669 0
672 662 663 0
-672 -662 0
-672 -663 0
673 659 -672 0
-673 -659 0
-673 672 0
674 670 -673 0
-674 -670 0
-674 673 0
675 671 -674 0
-675 -671 0
-675 674 0
676 274 275 0
-676 -274 0
-676 -275 0
677 -52 -676 0
-677 52 0
-677 676 0
678 299 -676 0
-678 -299 0
-678 676 0
679 -299 676 0
-679 299 0
-679 -676 0
680 -51 678 0
-680 51 0
-680 -678 0
681 679 -680 0
-681 -679 0
-681 680 0
682 273 661 0
-682 -273 0
-682 -661 0
683 -45 -311 0
-683 45 0
-683 311 0
684 664 683 0
-684 -664 0
-684 -683 0
685 682 -684 0
-685 -682 0
-685 684 0
686 677 -685 0
-686 -677 0
-686 685 0
687 681 -686 0
-687 -681 0
-687 686 0
688 675 687 0
-688 -675 0
-688 -687 0
689 -675 -687 0
-689 675 0
-689 687 0
690 688 689 0
-690 -688 0
-690 -689 0
691 62 64 0
-691 -62 0
-691 -64 0
692 65 -691 0
-692 -65 0
-692 691 0
693 430 534 0
-693 -430 0
-693 -534 0
694 -692 -693 0
-694 692 0
-694 693 0
695 509 -694 0
-695 -509 0
-695 694 0
696 519 -695 0
-696 -519 0
-696 695 0
697 533 -696 0
-697 -533 0
-697 696 0
698 506 -697 0
-698 -506 0
-698 697 0
699 507 -698 0
-699 -507 0
-699 698 0
700 465 -699 0
-700 -465 0
-700 699 0
701 466 -700 0
-701 -466 0
-701 700 0
702 657 -701 0
-702 -657 0
-702 701 0
703 541 -702 0
-703 -541 0
-703 702 0
704 583 616 0
-704 -583 0
-704 -616 0
705 -703 -704 0
-705 703 0
-705 704 0
706 690 -705 0
-706 -690 0
-706 705 0
707 429 -706 0
-707 -429 0
-707 706 0
708 377 -707 0
-708 -377 0
-708 707 0
709 319 -708 0
-709 -319 0
-709 708 0
94 709 0
-94 -709 0
94 0
